Route #1: 2 34 48 40 5
Route #2: 4 18 26 47 25 7
Route #3: 19 29 28 32
Route #4: 8 17 42 21 1
Route #5: 41 45 39 35 10
Route #6: 15 23 46 22 38 13 3
Route #7: 44 37 33 49 24 16 11 43 36 12
Route #8: 6 31 14 30 20 27 9
Cost 1357